32	0

0	9	2	3	4	11	7	8	6	5	12
10	2	15	17
8	2	14	21
2	1	9
2	1	9
2	1	9
1	2	9	10
7	2	14	21
1	2	13	16
2	2	13	16
8	2	14	21
3	2	13	16
4	2	14	21
2	2	15	17
2	5	18	19	20	22	24
9	5	18	19	20	22	24
8	3	26	27	28
5	2	23	25
5	2	23	25
5	2	23	25
6	2	23	25
3	2	23	25
8	3	26	27	28
9	3	26	27	28
1	3	26	27	28
9	2	30	31
10	2	30	31
1	1	29
7	2	30	31
6	1	32
9	1	32
0	0
